8 8
4
3 3 0 0
3 5 0 3
5 3 3 0
5 5 3 3
% time elapsed: 0.09 s
% time elapsed: 0.09 s
%%%mzn-stat: initTime=0.000223
%%%mzn-stat: solveTime=0.0002
%%%mzn-stat: solutions=8
%%%mzn-stat: variables=9
%%%mzn-stat: propagators=9
%%%mzn-stat: propagations=376
%%%mzn-stat: nodes=55
%%%mzn-stat: failures=20
%%%mzn-stat: restarts=0
%%%mzn-stat: peakDepth=9
%%%mzn-stat-end
